(set-logic QF_BV)
(declare-fun _substvar_655_ () (_ BitVec 8))
(declare-fun _substvar_356_ () (_ BitVec 16))
(declare-fun _substvar_581_ () (_ BitVec 32))
(declare-fun _substvar_667_ () (_ BitVec 32))
(declare-fun _substvar_660_ () (_ BitVec 32))
(declare-fun _substvar_580_ () (_ BitVec 8))
(assert (let ( (?v_16 ((_ zero_extend 24) _substvar_655_)) (?v_27 ((_ zero_extend 16) _substvar_356_))) (let ((?v_36 (bvadd ?v_27 (_ bv0 32)))) (let ((?v_39 (bvadd ?v_36 (bvsub (_ bv4294967295 32) ?v_16)))) (let ((?v_42 (bvadd ?v_39 (_ bv0 32)))) (let ((?v_41 (bvadd ?v_42 (_ bv0 32))) (?v_22 ((_ zero_extend 24) _substvar_580_))) (let ((?v_13 (bvadd (_ bv0 32) _substvar_581_))) (let ((?v_19 (bvadd ?v_13 (_ bv6 32)))) (let ((?v_21 (bvadd ?v_19 (_ bv0 32)))) (let ((?v_26 (bvadd ?v_21 (_ bv2 32)))) (let ( (?v_38 (bvadd ?v_41 (bvsub (_ bv4294967295 32) ?v_22)))) (let ((?v_35 (bvadd ?v_38 (_ bv0 32)))) (let ((?v_32 (bvadd ?v_35 (_ bv0 32)))) (let ((?v_31 (bvadd ?v_32 (_ bv0 32)))) (let ((?v_12 (bvadd (_ bv0 32) _substvar_581_))) (and true true true true true true (bvsle (_ bv1040 32) (bvsub (bvadd (bvadd (bvadd (bvadd (bvadd (bvadd (bvadd (bvadd (bvadd (bvadd ?v_12 (_ bv7 32)) _substvar_667_) (_ bv3 32)) (_ bv0 32)) (_ bv0 32)) ?v_16) (_ bv0 32)) (_ bv0 32)) (_ bv0 32)) _substvar_660_) (_ bv4268072 32))) true true true true true true true true true true true true true true true true true true true true true (= _substvar_667_ (_ bv1 32)) (= (bvadd ?v_31 (_ bv0 32)) (_ bv0 32)) (bvule (bvsub (bvadd ?v_26 ?v_27) (_ bv4268232 32)) (_ bv846 32)) true true true true true true true true true true true true true true true true true true true true true true true true (bvule (bvadd _substvar_660_ (_ bv1 32)) ?v_42)))))))))))))))))
(check-sat)
(exit)
